(set-info :source |printed by MathSAT|)
(declare-fun call_Age.Count () Int)
(declare-fun call_Dursince.Count.next () Int)
(declare-fun call_RaisingEdge.res.next () Bool)
(declare-fun call_Sofar.flby () Bool)
(declare-fun call_Age2.flby.next () Int)
(declare-fun call_Age4.Count () Int)
(declare-fun call_Dursince.flby.next () Int)
(declare-fun param__P1_ () Bool)
(declare-fun env () Bool)
(declare-fun param__P1_.next () Bool)
(declare-fun call_Dursince.Count () Int)
(declare-fun call_Age3.flby () Int)
(declare-fun call_RaisingEdge.flby () Bool)
(declare-fun call_Age3.flby.next () Int)
(declare-fun call_Sofar.Sofar.next () Bool)
(declare-fun call_Sofar.Sofar () Bool)
(declare-fun call_Age3.Count.next () Int)
(declare-fun call_Sofar.flby.next () Bool)
(declare-fun call_Dursince.ite.next () Int)
(declare-fun call_Age4.Count.next () Int)
(declare-fun call_Age2.ite.next () Int)
(declare-fun _OK_ () Bool)
(declare-fun call_Dursince.flby () Int)
(declare-fun param_leak () Bool)
(declare-fun call_Age4.flby () Int)
(declare-fun call_Age.Count.next () Int)
(declare-fun call_Age4.ite.next () Int)
(declare-fun call_Age3.ite.next () Int)
(declare-fun call_Age3.Count () Int)
(declare-fun call_Age.ite.next () Int)
(declare-fun _OK_.next () Bool)
(declare-fun call_RaisingEdge.flby.next () Bool)
(declare-fun call_Age.flby.next () Int)
(declare-fun call_Age2.Count.next () Int)
(declare-fun call_Age2.flby () Int)
(declare-fun call_Age4.flby.next () Int)
(declare-fun call_Age.flby () Int)
(declare-fun call_RaisingEdge.res () Bool)
(declare-fun env.next () Bool)
(declare-fun call_Dursince.ite2.next () Int)
(declare-fun call_Age2.Count () Int)
(define-fun .def_381 () Bool (= call_Age4.flby.next call_Age4.Count.next))
(define-fun .def_379 () Bool (= call_Dursince.flby.next call_Dursince.Count.next))
(define-fun .def_377 () Bool (= call_Age3.flby.next call_Age3.Count.next))
(define-fun .def_375 () Bool (= call_Age2.flby.next call_Age2.Count.next))
(define-fun .def_373 () Bool (= call_RaisingEdge.flby.next call_RaisingEdge.res.next))
(define-fun .def_371 () Bool (= call_Sofar.flby.next call_Sofar.Sofar.next))
(define-fun .def_369 () Bool (= call_Age.flby.next call_Age.Count.next))
(define-fun .def_364 () Bool (<= call_Age3.Count.next 600))
(define-fun .def_359 () Int (* (- 1) call_Age4.Count.next))
(define-fun .def_360 () Int (* 2 call_Dursince.Count.next))
(define-fun .def_361 () Int (+ .def_360 .def_359))
(define-fun .def_362 () Bool (<= .def_361 0))
(define-fun .def_365 () Bool (or .def_362 .def_364))
(define-fun .def_354 () Bool (not env.next))
(define-fun .def_366 () Bool (or .def_354 .def_365))
(define-fun .def_367 () Bool (= _OK_.next .def_366))
(define-fun .def_347 () Bool (<= 300 call_Age2.Count.next))
(define-fun .def_345 () Bool (not call_RaisingEdge.res.next))
(define-fun .def_348 () Bool (or .def_345 .def_347))
(define-fun .def_350 () Bool (and .def_348 call_Sofar.Sofar.next))
(define-fun .def_352 () Bool (= .def_350 env.next))
(define-fun .def_368 () Bool (and .def_352 .def_367))
(define-fun .def_370 () Bool (and .def_368 .def_369))
(define-fun .def_372 () Bool (and .def_370 .def_371))
(define-fun .def_374 () Bool (and .def_372 .def_373))
(define-fun .def_376 () Bool (and .def_374 .def_375))
(define-fun .def_378 () Bool (and .def_376 .def_377))
(define-fun .def_380 () Bool (and .def_378 .def_379))
(define-fun .def_382 () Bool (and .def_380 .def_381))
(define-fun .def_260 () Bool (= call_Age4.flby call_Age4.Count))
(define-fun .def_258 () Bool (= call_Dursince.flby call_Dursince.Count))
(define-fun .def_256 () Bool (= call_Age3.flby call_Age3.Count))
(define-fun .def_254 () Bool (= call_Age2.flby call_Age2.Count))
(define-fun .def_252 () Bool (= call_RaisingEdge.flby call_RaisingEdge.res))
(define-fun .def_250 () Bool (= call_Sofar.flby call_Sofar.Sofar))
(define-fun .def_248 () Bool (= call_Age.flby call_Age.Count))
(define-fun .def_243 () Bool (<= call_Age3.Count 600))
(define-fun .def_238 () Int (* (- 1) call_Age4.Count))
(define-fun .def_239 () Int (* 2 call_Dursince.Count))
(define-fun .def_240 () Int (+ .def_239 .def_238))
(define-fun .def_241 () Bool (<= .def_240 0))
(define-fun .def_244 () Bool (or .def_241 .def_243))
(define-fun .def_233 () Bool (not env))
(define-fun .def_245 () Bool (or .def_233 .def_244))
(define-fun .def_246 () Bool (= _OK_ .def_245))
(define-fun .def_226 () Bool (<= 300 call_Age2.Count))
(define-fun .def_224 () Bool (not call_RaisingEdge.res))
(define-fun .def_227 () Bool (or .def_224 .def_226))
(define-fun .def_229 () Bool (and .def_227 call_Sofar.Sofar))
(define-fun .def_231 () Bool (= .def_229 env))
(define-fun .def_247 () Bool (and .def_231 .def_246))
(define-fun .def_249 () Bool (and .def_247 .def_248))
(define-fun .def_251 () Bool (and .def_249 .def_250))
(define-fun .def_253 () Bool (and .def_251 .def_252))
(define-fun .def_255 () Bool (and .def_253 .def_254))
(define-fun .def_257 () Bool (and .def_255 .def_256))
(define-fun .def_259 () Bool (and .def_257 .def_258))
(define-fun .def_261 () Bool (and .def_259 .def_260))
(define-fun .def_383 () Bool (and .def_261 .def_382))
(define-fun .def_342 () Bool (= call_Age4.ite.next call_Age4.flby.next))
(define-fun .def_339 () Bool (= call_Dursince.ite2.next call_Dursince.flby.next))
(define-fun .def_336 () Bool (= call_Age3.ite.next call_Age3.flby.next))
(define-fun .def_333 () Bool (= call_Age2.ite.next call_Age2.flby.next))
(define-fun .def_266 () Bool (not param__P1_))
(define-fun .def_328 () Bool (and .def_266 param__P1_.next))
(define-fun .def_330 () Bool (= .def_328 call_RaisingEdge.flby.next))
(define-fun .def_322 () Bool (<= call_Age.Count.next 10))
(define-fun .def_323 () Bool (and call_Sofar.Sofar .def_322))
(define-fun .def_325 () Bool (= .def_323 call_Sofar.flby.next))
(define-fun .def_319 () Bool (= call_Age.ite.next call_Age.flby.next))
(define-fun .def_314 () Bool (= call_Dursince.Count call_Dursince.ite.next))
(define-fun .def_315 () Bool (or param_leak .def_314))
(define-fun .def_309 () Int (* (- 1) call_Dursince.ite.next))
(define-fun .def_310 () Int (+ call_Dursince.Count .def_309))
(define-fun .def_311 () Bool (= .def_310 (- 1)))
(define-fun .def_297 () Bool (not param_leak))
(define-fun .def_312 () Bool (or .def_297 .def_311))
(define-fun .def_306 () Bool (= call_Age2.ite.next 0))
(define-fun .def_307 () Bool (or .def_297 .def_306))
(define-fun .def_301 () Int (* (- 1) call_Age2.ite.next))
(define-fun .def_302 () Int (+ call_Age2.Count .def_301))
(define-fun .def_303 () Bool (= .def_302 (- 1)))
(define-fun .def_304 () Bool (or param_leak .def_303))
(define-fun .def_294 () Int (* (- 1) call_Age.ite.next))
(define-fun .def_295 () Int (+ call_Age.Count .def_294))
(define-fun .def_296 () Bool (= .def_295 (- 1)))
(define-fun .def_298 () Bool (or .def_296 .def_297))
(define-fun .def_291 () Bool (= call_Age.ite.next 0))
(define-fun .def_293 () Bool (or .def_291 param_leak))
(define-fun .def_299 () Bool (and .def_293 .def_298))
(define-fun .def_305 () Bool (and .def_299 .def_304))
(define-fun .def_308 () Bool (and .def_305 .def_307))
(define-fun .def_313 () Bool (and .def_308 .def_312))
(define-fun .def_316 () Bool (and .def_313 .def_315))
(define-fun .def_287 () Bool (= call_Age4.ite.next 0))
(define-fun .def_288 () Bool (or .def_266 .def_287))
(define-fun .def_282 () Int (* (- 1) call_Age4.ite.next))
(define-fun .def_283 () Int (+ call_Age4.Count .def_282))
(define-fun .def_284 () Bool (= .def_283 (- 1)))
(define-fun .def_285 () Bool (or param__P1_ .def_284))
(define-fun .def_278 () Bool (= call_Dursince.ite2.next call_Dursince.ite.next))
(define-fun .def_279 () Bool (or param__P1_ .def_278))
(define-fun .def_274 () Bool (= call_Dursince.ite2.next 0))
(define-fun .def_275 () Bool (or .def_266 .def_274))
(define-fun .def_268 () Int (* (- 1) call_Age3.ite.next))
(define-fun .def_269 () Int (+ call_Age3.Count .def_268))
(define-fun .def_270 () Bool (= .def_269 (- 1)))
(define-fun .def_271 () Bool (or param__P1_ .def_270))
(define-fun .def_264 () Bool (= call_Age3.ite.next 0))
(define-fun .def_267 () Bool (or .def_264 .def_266))
(define-fun .def_272 () Bool (and .def_267 .def_271))
(define-fun .def_276 () Bool (and .def_272 .def_275))
(define-fun .def_280 () Bool (and .def_276 .def_279))
(define-fun .def_286 () Bool (and .def_280 .def_285))
(define-fun .def_289 () Bool (and .def_286 .def_288))
(define-fun .def_317 () Bool (and .def_289 .def_316))
(define-fun .def_320 () Bool (and .def_317 .def_319))
(define-fun .def_326 () Bool (and .def_320 .def_325))
(define-fun .def_331 () Bool (and .def_326 .def_330))
(define-fun .def_334 () Bool (and .def_331 .def_333))
(define-fun .def_337 () Bool (and .def_334 .def_336))
(define-fun .def_340 () Bool (and .def_337 .def_339))
(define-fun .def_343 () Bool (and .def_340 .def_342))
(define-fun .def_384 () Bool (and .def_343 .def_383))
(assert .def_384)
